
Gurobi 10.0.3 (linux64, gurobi_cl) logging started Fri Nov 10 21:25:15 2023

Set parameter Username
Set parameter TimeLimit to value 3600
Set parameter LogFile to value "RCPSP_1949.log"
Set parameter Threads to value 32
Academic license - for non-commercial use only - expires 2024-10-30
Using license file /home/jrivera6/gurobi-licenses/v1003/compute-0-37/gurobi.lic

Gurobi Optimizer version 10.0.3 build v10.0.3rc0 (linux64)
Copyright (c) 2023, Gurobi Optimization, LLC

Read MPS format model from file RCPSP_1949.mps
Reading time = 0.81 seconds
RCPSP_1949: 75288 rows, 29890 columns, 266102 nonzeros

CPU model: Intel(R) Xeon(R) Gold 6242 CPU @ 2.80GHz, instruction set [SSE2|AVX|AVX2|AVX512]
Thread count: 32 physical cores, 32 logical processors, using up to 32 threads

Optimize a model with 75288 rows, 29890 columns and 266102 nonzeros
Model fingerprint: 0xd43a34fc
Variable types: 122 continuous, 29768 integer (29768 binary)
Coefficient statistics:
  Matrix range     [1e+00, 7e+02]
  Objective range  [1e+00, 1e+00]
  Bounds range     [1e+00, 1e+00]
  RHS range        [1e+00, 7e+02]
Presolve removed 22815 rows and 6596 columns (presolve time = 5s) ...
Presolve removed 22815 rows and 6596 columns (presolve time = 10s) ...
Presolve removed 27355 rows and 8221 columns
Presolve time: 12.33s
Presolved: 47933 rows, 21669 columns, 173512 nonzeros
Variable types: 121 continuous, 21548 integer (21548 binary)

Deterministic concurrent LP optimizer: primal and dual simplex (primal and dual model)
Showing first log only...

Root relaxation presolved: 47923 rows, 21679 columns, 173492 nonzeros


Root simplex log...

Iteration    Objective       Primal Inf.    Dual Inf.      Time
       0    1.0411971e+02   4.645816e-03   1.245576e+08     14s
    2623    1.0400000e+02   0.000000e+00   0.000000e+00     14s
    2623    1.0400000e+02   0.000000e+00   0.000000e+00     14s
Concurrent spin time: 0.46s

Solved with dual simplex (primal model)

Root relaxation: objective 1.040000e+02, 6608 iterations, 1.95 seconds (0.21 work units)
Total elapsed time = 17.70s

    Nodes    |    Current Node    |     Objective Bounds      |     Work
 Expl Unexpl |  Obj  Depth IntInf | Incumbent    BestBd   Gap | It/Node Time

     0     0  104.00000    0  903          -  104.00000      -     -   34s
     0     0  104.00000    0  886          -  104.00000      -     -   35s
     0     0  104.00000    0 1389          -  104.00000      -     -   76s
     0     0  104.00000    0 1386          -  104.00000      -     -   76s
     0     0  104.00707    0 1794          -  104.00707      -     -   89s
     0     0  104.00707    0 1804          -  104.00707      -     -  101s
     0     0  104.00707    0 1684          -  104.00707      -     -  102s
     0     0  105.47872    0 1817          -  105.47872      -     -  107s
     0     0  105.47872    0  608          -  105.47872      -     -  141s
     0     0  105.47872    0  608          -  105.47872      -     -  141s
     0     0  105.47872    0 1405          -  105.47872      -     -  178s
     0     0  105.47872    0 1403          -  105.47872      -     -  199s
     0     0  105.47872    0 1372          -  105.47872      -     -  206s
     0     0  105.47872    0 1344          -  105.47872      -     -  207s
     0     0  105.47872    0 1366          -  105.47872      -     -  212s
     0     0  105.47872    0 1288          -  105.47872      -     -  213s
     0     0  106.52487    0 1503          -  106.52487      -     -  224s
     0     0  106.52487    0 1448          -  106.52487      -     -  225s
     0     0  106.52487    0 1381          -  106.52487      -     -  275s
     0     0  106.52487    0 1376          -  106.52487      -     -  276s
     0     0  106.52487    0 1374          -  106.52487      -     -  277s
     0     0  106.52487    0 1371          -  106.52487      -     -  278s
     0     0  106.55618    0 1474          -  106.55618      -     -  288s
     0     0  106.55618    0 1468          -  106.55618      -     -  289s
     0     0  106.62145    0 1592          -  106.62145      -     -  301s
     0     0  106.62145    0 1451          -  106.62145      -     -  305s
     0     0  106.62145    0 1411          -  106.62145      -     -  306s
     0     0  106.62145    0 1464          -  106.62145      -     -  311s
     0     0  106.62145    0 1414          -  106.62145      -     -  312s
     0     0  107.77259    0 1379          -  107.77259      -     -  323s
     0     0  107.77259    0 1362          -  107.77259      -     -  324s
     0     0  107.77323    0 1465          -  107.77323      -     -  328s
     0     0  107.77323    0 1463          -  107.77323      -     -  328s
     0     0  107.77323    0 1403          -  107.77323      -     -  336s
     0     0  107.77323    0 1304          -  107.77323      -     -  342s
     0     0  107.77323    0 1376          -  107.77323      -     -  345s
     0     0  107.77323    0 1374          -  107.77323      -     -  345s
     0     0  108.04446    0 1425          -  108.04446      -     -  359s
     0     0  108.04446    0 1419          -  108.04446      -     -  359s
     0     0  108.04459    0 1540          -  108.04459      -     -  374s
     0     0  108.04459    0 1520          -  108.04459      -     -  375s
     0     0  108.04972    0 1466          -  108.04972      -     -  383s
     0     0  108.04972    0 1465          -  108.04972      -     -  383s
     0     0  108.04972    0 1555          -  108.04972      -     -  391s
     0     0  108.04972    0 1522          -  108.04972      -     -  394s
     0     0  108.04972    0 1516          -  108.04972      -     -  394s
     0     0  108.04972    0 1531          -  108.04972      -     -  404s
     0     0  108.04972    0 1416          -  108.04972      -     -  407s
     0     0  108.04972    0 1413          -  108.04972      -     -  407s
     0     0  108.05011    0 1668          -  108.05011      -     -  430s
     0     0  108.05011    0 1482          -  108.05011      -     -  438s
     0     0  108.05011    0 1311          -  108.05011      -     -  441s
     0     0  108.05011    0 1290          -  108.05011      -     -  442s
     0     0  108.12200    0 1472          -  108.12200      -     -  467s
     0     0  108.12200    0 1446          -  108.12200      -     -  468s
     0     0  108.12200    0 1444          -  108.12200      -     -  468s
     0     0  108.12200    0 1610          -  108.12200      -     -  504s
     0     0  108.12200    0 1472          -  108.12200      -     -  507s
     0     0  108.12200    0 1460          -  108.12200      -     -  507s
     0     0  108.12200    0 1447          -  108.12200      -     -  507s
     0     0  108.14499    0 1504          -  108.14499      -     -  519s
     0     0  108.14499    0 1426          -  108.14499      -     -  519s
     0     0  108.14499    0 1557          -  108.14499      -     -  525s
     0     0  108.14499    0 1438          -  108.14499      -     -  527s
     0     0  108.14499    0 1436          -  108.14499      -     -  527s
     0     0  108.14499    0 1403          -  108.14499      -     -  535s
     0     0  108.14499    0 1372          -  108.14499      -     -  538s
     0     0  108.14499    0 1406          -  108.14499      -     -  543s
     0     0  108.14499    0 1320          -  108.14499      -     -  544s
     0     0  108.14499    0 1530          -  108.14499      -     -  552s
     0     0  108.14499    0 1454          -  108.14499      -     -  556s
     0     0  108.15428    0 1445          -  108.15428      -     -  558s
     0     0  108.15428    0 1443          -  108.15428      -     -  559s
     0     0  108.15693    0 1533          -  108.15693      -     -  567s
     0     0  108.15693    0 1382          -  108.15693      -     -  568s
     0     0  108.15693    0 1483          -  108.15693      -     -  572s
     0     0  108.15693    0 1398          -  108.15693      -     -  575s
     0     0  108.15693    0 1380          -  108.15693      -     -  575s
     0     0  108.15693    0 1042          -  108.15693      -     -  609s
     0     0  108.15693    0 1040          -  108.15693      -     -  609s
     0     0  108.15693    0 1332          -  108.15693      -     -  626s
     0     0  108.15693    0 1292          -  108.15693      -     -  627s
     0     0  108.15693    0 1419          -  108.15693      -     -  646s
     0     0  108.15693    0 1337          -  108.15693      -     -  647s
     0     0  108.15693    0 1459          -  108.15693      -     -  660s
     0     0  108.15693    0 1425          -  108.15693      -     -  661s
     0     0  108.15693    0 1419          -  108.15693      -     -  661s
     0     0  108.18507    0 1067          -  108.18507      -     -  682s
     0     0  108.19098    0 1303          -  108.19098      -     -  690s
     0     0  108.19098    0 1331          -  108.19098      -     -  692s
     0     0  108.19098    0 1304          -  108.19098      -     -  692s
     0     0  108.19098    0 1302          -  108.19098      -     -  695s
     0     0  108.19098    0 1293          -  108.19098      -     -  695s
     0     0  108.25118    0 1392          -  108.25118      -     -  703s
     0     0  108.25118    0 1357          -  108.25118      -     -  704s
     0     0  108.25118    0 1401          -  108.25118      -     -  755s
     0     0  108.25118    0 1358          -  108.25118      -     -  757s
     0     0  108.25118    0 1458          -  108.25118      -     -  764s
     0     0  108.25118    0 1370          -  108.25118      -     -  765s
     0     0  108.25118    0 1501          -  108.25118      -     -  770s
     0     0  108.25118    0 1599          -  108.25118      -     -  775s
     0     0  108.25118    0 1574          -  108.25118      -     -  777s
     0     0  108.25118    0 1572          -  108.25118      -     -  777s
     0     0  108.25118    0 1079          -  108.25118      -     -  803s
     0     0  108.30622    0 1349          -  108.30622      -     -  816s
     0     0  108.30622    0 1286          -  108.30622      -     -  816s
     0     0  108.30622    0 1365          -  108.30622      -     -  822s
     0     0  108.30622    0 1515          -  108.30622      -     -  824s
     0     0  108.30622    0 1513          -  108.30622      -     -  825s
     0     0  108.30622    0 1069          -  108.30622      -     -  860s
     0     0  108.39256    0 1337          -  108.39256      -     -  869s
     0     0  108.39256    0 1304          -  108.39256      -     -  872s
     0     0  108.39256    0 1351          -  108.39256      -     -  873s
     0     0  108.39256    0 1410          -  108.39256      -     -  885s
     0     0  108.39256    0 1335          -  108.39256      -     -  887s
     0     0  108.70240    0 1440          -  108.70240      -     -  906s
     0     0  108.70240    0 1438          -  108.70240      -     -  906s
     0     0  108.70240    0 1528          -  108.70240      -     -  918s
     0     0  108.70240    0 1466          -  108.70240      -     -  921s
     0     0  108.70240    0 1436          -  108.70240      -     -  924s
     0     0  108.70240    0 1430          -  108.70240      -     -  924s
     0     0  108.70240    0 1497          -  108.70240      -     -  950s
     0     0  108.70240    0 1598          -  108.70240      -     -  952s
     0     0  108.70240    0 1596          -  108.70240      -     -  952s
     0     0  108.70240    0 1491          -  108.70240      -     - 1003s
     0     0  108.70240    0 1483          -  108.70240      -     - 1004s
     0     0  108.70240    0  967          -  108.70240      -     - 1190s
     0     0  108.70240    0 1197          -  108.70240      -     - 1196s
     0     0  108.70240    0 1259          -  108.70240      -     - 1228s
     0     0  109.03849    0 1107          -  109.03849      -     - 1256s
     0     0  109.03849    0 1105          -  109.03849      -     - 1256s
     0     0  109.03849    0 1354          -  109.03849      -     - 1263s
     0     0  109.03849    0 1381          -  109.03849      -     - 1264s
     0     0  109.03849    0 1359          -  109.03849      -     - 1264s
     0     0  109.03849    0 1373          -  109.03849      -     - 1322s
     0     0  109.03849    0 1371          -  109.03849      -     - 1322s
     0     0  109.03849    0 1465          -  109.03849      -     - 1334s
     0     0  109.03849    0 1441          -  109.03849      -     - 1334s
     0     0  109.03849    0  803          -  109.03849      -     - 1396s
     0     0  109.03849    0 1104          -  109.03849      -     - 1428s
     0     0  109.03849    0 1095          -  109.03849      -     - 1428s
     0     0  109.03849    0 1084          -  109.03849      -     - 1444s
     0     0  109.03849    0  662          -  109.03849      -     - 2254s
     0     2  109.03849    0  481          -  109.03849      -     - 2793s
     1     5  110.07734    1  522          -  110.07734      -  6039 3678s

Cutting planes:
  Learned: 4
  Gomory: 11
  Cover: 89
  Implied bound: 47
  Clique: 28
  MIR: 1456
  StrongCG: 18
  Zero half: 5
  RLT: 153
  Relax-and-lift: 168

Explored 3 nodes (324461 simplex iterations) in 3681.03 seconds (143.32 work units)
Thread count was 32 (of 32 available processors)

Solution count 0

Time limit reached
Best objective -, best bound 1.109197530864e+02, gap -

Unable to retrieve attribute 'X'

